c Circuit 1 formula
c This formula represents a circuit configuration
c Digital logic circuit with multiple gates
p cnf 10 20
1 2 3 0
-1 4 0
-2 5 0
-3 6 0
4 5 7 0
-4 8 0
-5 -6 9 0
7 -8 10 0
-7 9 0
1 -9 0
2 6 -10 0
-1 -2 8 0
3 -4 5 0
6 7 -9 0
-6 10 0
8 9 0
-8 -10 1 0
2 -5 7 0
-3 4 -7 0
5 6 8 0